c File: instances/24_0.45_3.col
c
c Description: Random graph of size 24 vertices and P(0.44999999999999996) of edges between any two vertices.
p col 24 276
e 1 2
e 1 6
e 1 7
e 1 9
e 1 10
e 1 13
e 1 17
e 2 3
e 2 5
e 2 11
e 2 13
e 2 14
e 2 15
e 2 18
e 2 20
e 2 22
e 2 24
e 3 6
e 3 8
e 3 9
e 3 10
e 3 16
e 3 17
e 3 19
e 3 21
e 3 22
e 3 23
e 3 24
e 4 9
e 4 10
e 4 20
e 4 22
e 5 9
e 5 13
e 5 16
e 5 19
e 5 20
e 5 21
e 5 22
e 5 23
e 6 7
e 6 8
e 6 9
e 6 10
e 6 11
e 6 16
e 6 17
e 6 18
e 6 21
e 6 22
e 6 23
e 6 24
e 7 17
e 7 18
e 7 20
e 7 21
e 8 12
e 8 13
e 8 14
e 8 16
e 8 20
e 8 24
e 9 10
e 9 11
e 9 14
e 9 15
e 9 19
e 9 20
e 9 21
e 9 23
e 9 24
e 10 11
e 10 13
e 10 14
e 10 16
e 10 18
e 10 20
e 10 21
e 10 22
e 10 23
e 11 12
e 11 14
e 11 15
e 11 17
e 11 19
e 11 20
e 11 21
e 11 22
e 11 23
e 12 13
e 12 17
e 12 22
e 12 23
e 13 14
e 13 18
e 13 20
e 14 19
e 14 20
e 14 21
e 14 22
e 14 24
e 15 20
e 15 22
e 15 23
e 16 17
e 16 18
e 16 20
e 18 23
e 18 24
e 19 24
e 20 22
e 20 23
e 20 24
e 21 23
e 21 24
e 22 23